Tried aggregator 2 times.
MIP Presolve eliminated 8 rows and 8 columns.
Aggregator did 4 substitutions.
Reduced MIP has 105109 rows, 140148 columns, and 350364 nonzeros.
Reduced MIP has 35036 binaries, 0 generals, 0 SOSs, and 0 indicators.
Presolve time = 0.32 sec. (224.71 ticks)
Found incumbent of value 2383.112906 after 0.82 sec. (679.09 ticks)
Probing time = 0.22 sec. (6.64 ticks)
Tried aggregator 1 time.
Reduced MIP has 105109 rows, 140148 columns, and 350364 nonzeros.
Reduced MIP has 35036 binaries, 0 generals, 0 SOSs, and 0 indicators.
Presolve time = 0.47 sec. (189.93 ticks)
Probing time = 0.06 sec. (6.24 ticks)
MIP emphasis: balance optimality and feasibility.
MIP search method: dynamic search.
Parallel mode: deterministic, using up to 20 threads.
Root relaxation solution time = 1.50 sec. (940.82 ticks)

        Nodes                                         Cuts/
   Node  Left     Objective  IInf  Best Integer    Best Bound    ItCnt     Gap

*     0+    0                         2383.1129   1.56790e+07              --- 
*     0+    0                        87367.9816   1.56790e+07              --- 
      0     0  4485048.6939  1620    87367.9816  4485048.6939    13633     --- 
      0     0  4452201.3760   868    87367.9816    Cuts: 3774    15081     --- 
*     0+    0                      4280504.9816  4452201.3760             4.01%
      0     0  4447412.1969   812  4280504.9816    Cuts: 2936    16310    3.90%
      0     0  4432603.2948   572  4280504.9816    Cuts: 2610    17293    3.55%
      0     0  4428936.3141   612  4280504.9816    Cuts: 1540    17883    3.47%
*     0+    0                      4308849.2436  4428936.3141             2.79%
      0     0  4426378.8754   620  4308849.2436    Cuts: 1198    18438    2.73%
      0     0  4424002.0410   666  4308849.2436    Cuts: 1016    18883    2.67%
      0     0  4421434.8503   668  4308849.2436     Cuts: 654    19307    2.61%
      0     0  4419839.6918   688  4308849.2436     Cuts: 488    19639    2.58%
      0     0  4418130.0988   646  4308849.2436     Cuts: 376    19915    2.54%
      0     0  4416727.5734   618  4308849.2436     Cuts: 284    20113    2.50%
      0     0  4416055.6402   614  4308849.2436     Cuts: 158    20251    2.49%
*     0+    0                      4311703.2144  4416055.6402             2.42%
      0     0  4415648.3470   614  4311703.2144  MIRcuts: 124    20321    2.41%
      0     0  4415462.3843   592  4311703.2144   MIRcuts: 66    20385    2.41%
      0     0  4415287.8987   602  4311703.2144   MIRcuts: 50    20419    2.40%
*     0+    0                      4373573.0982  4415287.8987             0.95%
*     0+    0                      4393418.2953  4415287.8987             0.50%
      0     2  4415287.8987   602  4393418.2953  4415287.8987    20419    0.50%
Elapsed time = 16.88 sec. (11950.36 ticks, tree = 0.01 MB, solutions = 7)
      4     6  4415243.3170   599  4393418.2953  4415281.9519    20431    0.50%
      5     7  4415207.2681   598  4393418.2953  4415281.9519    20437    0.50%
      6     8  4415217.8599   597  4393418.2953  4415281.9519    20443    0.50%
      7     9  4415181.8110   596  4393418.2953  4415281.9519    20449    0.50%
      8    10  4415238.1783   600  4393418.2953  4415279.7716    20468    0.50%
      9    11  4415176.6722   597  4393418.2953  4415279.7716    20487    0.50%
     10    12  4415140.8394   596  4393418.2953  4415279.7716    20505    0.50%
     11    13  4415184.9000   598  4393418.2953  4415279.7716    20520    0.50%
     12    14  4415256.7818   600  4393418.2953  4415279.7716    20536    0.50%
     34    36  4415138.3319   600  4393418.2953  4415279.7716    20666    0.50%
Elapsed time = 18.45 sec. (12910.16 ticks, tree = 0.01 MB, solutions = 7)
    466   468  4414733.4052   563  4393418.2953  4415279.7716    21672    0.50%
    469   471  4414697.5724   562  4393418.2953  4415279.7716    21677    0.50%
    471   473  4414776.1808   561  4393418.2953  4415279.7716    21679    0.50%
    472   474  4414897.3754   563  4393418.2953  4415279.7716    21682    0.50%
    473   475  4414861.5426   562  4393418.2953  4415279.7716    21685    0.50%
    474   476  4414851.2729   560  4393418.2953  4415279.7716    21687    0.50%
    475   477  4414977.2992   564  4393418.2953  4415279.7716    21688    0.50%
    476   478  4414312.1067   557  4393418.2953  4415279.7716    21690    0.50%
    477   479  4414667.2152   558  4393418.2953  4415279.7716    21691    0.50%
    478   480  4414980.7112   564  4393418.2953  4415279.7716    21694    0.50%
Elapsed time = 21.12 sec. (13870.08 ticks, tree = 0.01 MB, solutions = 7)
    722   724  4414771.3032   559  4393418.2953  4415279.7716    22154    0.50%
    723   725  4414735.4704   558  4393418.2953  4415279.7716    22155    0.50%
    777   779  4414292.4231   556  4393418.2953  4415279.7716    22292    0.50%
    790   792  4414500.6755   557  4393418.2953  4415279.7716    22319    0.50%
    793   795  4414464.8427   556  4393418.2953  4415279.7716    22324    0.50%
    795   797  4414550.1158   557  4393418.2953  4415279.7716    22327    0.50%
    796   798  4414623.4625   556  4393418.2953  4415279.7716    22328    0.50%
    797   799  4414794.7707   560  4393418.2953  4415279.7716    22330    0.50%
    799   801  4414484.6867   554  4393418.2953  4415279.7716    22333    0.50%
    800   802  4414747.4833   560  4393418.2953  4415279.7716    22335    0.50%
Elapsed time = 24.20 sec. (14836.32 ticks, tree = 0.01 MB, solutions = 7)
    981   983  4414255.1127   553  4393418.2953  4415279.7716    22823    0.50%
   1001  1003  4414241.1023   553  4393418.2953  4415279.7716    22886    0.50%
   1021  1023  4414241.8537   552  4393418.2953  4415279.7716    22972    0.50%
   1102  1104  4413821.5317   549  4393418.2953  4415279.7716    23215    0.50%
   1119  1121  4414200.6339   551  4393418.2953  4415279.7716    23287    0.50%
   1141  1143  4414078.3114   551  4393418.2953  4415279.7716    23361    0.50%
   1142  1144  4414038.0984   549  4393418.2953  4415279.7716    23363    0.50%
   1144  1146  4413859.4436   547  4393418.2953  4415279.7716    23368    0.50%
   1145  1147  4413852.3693   549  4393418.2953  4415279.7716    23370    0.50%
   1146  1148  4413812.1563   547  4393418.2953  4415279.7716    23372    0.50%
Elapsed time = 26.68 sec. (16051.74 ticks, tree = 8.22 MB, solutions = 7)
   1856  1858  4413154.3388   532  4393418.2953  4415279.7716    25508    0.50%
   1876  1878  4413085.2131   531  4393418.2953  4415279.7716    25561    0.50%
   1880  1882  4413042.7167   514  4393418.2953  4415279.7716    25572    0.50%
   1898  1900  4413258.0200   526  4393418.2953  4415279.7716    25624    0.50%
   1899  1901  4412753.1220   514  4393418.2953  4415279.7716    25628    0.50%
   1902  1904  4412959.7559   516  4393418.2953  4415279.7716    25638    0.50%
   1915  1917  4413278.4508   517  4393418.2953  4415279.7716    25692    0.50%
   1917  1919  4413258.0048   525  4393418.2953  4415279.7716    25699    0.50%
   1919  1921  4412409.8884   513  4393418.2953  4415279.7716    25705    0.50%
   1920  1922  4413014.4895   515  4393418.2953  4415279.7716    25708    0.50%
Elapsed time = 29.57 sec. (17062.21 ticks, tree = 17.48 MB, solutions = 7)
   2140  2142  4413100.0055   509  4393418.2953  4415279.7716    26326    0.50%
   2141  2143  4412924.5767   510  4393418.2953  4415279.7716    26328    0.50%
   2160  2162  4413055.6319   507  4393418.2953  4415279.7716    26379    0.50%
   2161  2163  4412849.8310   510  4393418.2953  4415279.7716    26382    0.50%
   2170  2172  4412297.5751   509  4393418.2953  4415279.7716    26402    0.50%
   2180  2182  4412980.8861   507  4393418.2953  4415279.7716    26429    0.50%
   2181  2183  4412864.6061   510  4393418.2953  4415279.7716    26433    0.50%
   2190  2192  4412253.2014   507  4393418.2953  4415279.7716    26453    0.50%
   2200  2202  4412995.6613   507  4393418.2953  4415279.7716    26487    0.50%
   2201  2203  4412861.7678   509  4393418.2953  4415279.7716    26488    0.50%
Elapsed time = 32.49 sec. (18110.54 ticks, tree = 35.44 MB, solutions = 7)
*  2263+ 2263                      4393892.1713  4415279.7716             0.49%
   2774  2776  4412204.6550   499  4393892.1713  4415279.7716    27892    0.49%
   2776  2778  4411741.2486   490  4393892.1713  4415279.7716    27898    0.49%
   2792  2794  4411243.0697   484  4393892.1713  4415279.7716    27936    0.49%
   2793  2795  4412174.8119   493  4393892.1713  4415279.7716    27937    0.49%
   2794  2796  4412179.4996   499  4393892.1713  4415279.7716    27938    0.49%
   2796  2798  4411462.3250   489  4393892.1713  4415279.7716    27943    0.49%
   2812  2814  4411222.5026   483  4393892.1713  4415279.7716    27982    0.49%
   2813  2815  4412186.9541   493  4393892.1713  4415279.7716    27984    0.49%
   2814  2816  4411903.4258   498  4393892.1713  4415279.7716    27987    0.49%
   2816  2818  4411623.9680   489  4393892.1713  4415279.7716    27994    0.49%
Elapsed time = 35.82 sec. (19133.49 ticks, tree = 55.07 MB, solutions = 8)
   3423  3425  4410912.7002   470  4393892.1713  4415279.7716    29405    0.49%
   3425  3427  4411137.0083   464  4393892.1713  4415279.7716    29410    0.49%
   3441  3443  4410285.3770   461  4393892.1713  4415279.7716    29446    0.49%
   3442  3444  4411046.3092   475  4393892.1713  4415279.7716    29449    0.49%
   3443  3445  4411121.3775   471  4393892.1713  4415279.7716    29453    0.49%
   3444  3446  4410109.3996   458  4393892.1713  4415279.7716    29455    0.49%
   3445  3447  4410900.1473   463  4393892.1713  4415279.7716    29458    0.49%
   3447  3449  4409587.8442   454  4393892.1713  4415279.7716    29464    0.49%
   3448  3450  4410399.7750   461  4393892.1713  4415279.7716    29467    0.49%
   3449  3451  4410351.0630   455  4393892.1713  4415279.7716    29473    0.49%
Elapsed time = 38.61 sec. (20091.61 ticks, tree = 75.46 MB, solutions = 8)
   4003  4005  4410379.4171   452  4393892.1713  4415279.7716    30881    0.49%
   4023  4025  4410265.8585   451  4393892.1713  4415279.7716    30938    0.49%
   4043  4045  4410239.2771   450  4393892.1713  4415279.7716    30986    0.49%
   4063  4065  4410190.9815   448  4393892.1713  4415279.7716    31036    0.49%
   4065  4067  4409783.5345   438  4393892.1713  4415279.7716    31046    0.49%
   4083  4085  4409931.0816   447  4393892.1713  4415279.7716    31093    0.49%
   4085  4087  4409977.2517   439  4393892.1713  4415279.7716    31096    0.49%
   4103  4105  4410124.7988   448  4393892.1713  4415279.7716    31148    0.49%
   4105  4107  4409943.4860   438  4393892.1713  4415279.7716    31151    0.49%
   4111  4113  4408442.5119   431  4393892.1713  4415279.7716    31157    0.49%
Elapsed time = 42.12 sec. (21045.94 ticks, tree = 75.46 MB, solutions = 8)
   4735  4737  4406913.2728   403  4393892.1713  4415279.7716    32561    0.49%
   4736  4738  4408323.6393   422  4393892.1713  4415279.7716    32563    0.49%
   4737  4739  4408510.3309   431  4393892.1713  4415279.7716    32566    0.49%
   4738  4740  4406743.7627   404  4393892.1713  4415279.7716    32568    0.49%
   4739  4741  4408184.6518   418  4393892.1713  4415279.7716    32572    0.49%
   4740  4742  4406032.9268   401  4393892.1713  4415279.7716    32577    0.49%
   4741  4743  4406145.7919   405  4393892.1713  4415279.7716    32582    0.49%
   4745  4747  4406425.5629   403  4393892.1713  4415279.7716    32593    0.49%
   4749  4751  4406179.9951   402  4393892.1713  4415279.7716    32604    0.49%
*  6016+ 6016                      4394387.7823  4415279.7716             0.48%
*  6016+ 6016                      4395386.9049  4415279.7716             0.45%
*  6016+ 6016                      4395536.0096  4415279.7716             0.45%
*  6016+ 6016                      4396714.2685  4415279.7716             0.42%
*  6016+ 6016                      4397138.3705  4415279.7716             0.41%
*  6016+ 6016                      4397624.6350  4415279.7716             0.40%
*  6016+ 6016                      4397972.9194  4415279.7716             0.39%
*  6016+ 6016                      4398454.4837  4415279.7716             0.38%
*  6016+ 6016                      4398880.4021  4415279.7716             0.37%
*  6016+ 6016                      4399107.3388  4415279.7716             0.37%
*  6016+ 6016                      4399208.6751  4415279.7716             0.37%
*  6016+ 6016                      4399339.0385  4415279.7716             0.36%
*  6016+ 6016                      4399887.5063  4415279.7716             0.35%
*  6016+ 6016                      4399924.8906  4415279.7716             0.35%
   6016  6018  4402601.8975   338  4399924.8906  4415279.7716    36080    0.35%
Elapsed time = 88.59 sec. (46820.37 ticks, tree = 281.64 MB, solutions = 8)
   6017  6019  4404158.7468   353  4399924.8906  4415279.7716    36082    0.35%
*  6021+ 6021                      4399971.9237  4415279.7716             0.35%
*  6021+ 6021                      4400551.6517  4415279.7716             0.33%
*  6036+ 4024                      4400678.0403  4407841.8542             0.16%
*  6036+ 2682                      4400831.1703  4406941.5750             0.14%
*  6036+ 1788                      4400835.6694  4404037.9138             0.07%
*  6036+ 1192                      4401682.0256  4403459.7091             0.04%
*  6036+  794                      4402289.8447  4403459.7091             0.03%
*  6036+  529                      4402798.4508  4403459.7091             0.02%
*  6036+  352                      4402861.7864  4403397.4539             0.01%
*  6036+  234                      4402981.1851  4403397.4539             0.01%

Implied bound cuts applied:  216
Flow cuts applied:  58
Mixed integer rounding cuts applied:  5869
Lift and project cuts applied:  30
Gomory fractional cuts applied:  303

Root node processing (before b&c):
  Real time             =   16.52 sec. (12058.67 ticks)
Parallel b&c, 20 threads:
  Real time             =   98.92 sec. (60524.09 ticks)
  Sync time (average)   =   10.35 sec.
  Wait time (average)   =   11.38 sec.
                          ------------
Total (root+branch&cut) =  115.43 sec. (72582.76 ticks)
MKLROOT=/global/software/sl-6.x86_64/modules/langs/intel/2015.6.233/mkl
SLURM_NODELIST=n0104.savio1
SLURM_CHECKPOINT_IMAGE_DIR=/var/slurm/checkpoint
MANPATH=/global/software/sl-6.x86_64/modules/langs/julia/0.5.0/share/man:/global/software/sl-6.x86_64/modules/langs/intel/2015.6.233/man/en_US:/global/software/sl-6.x86_64/modules/langs/gcc/4.8.5/share/man:/usr/share/man
SLURM_JOB_NAME=aggregator
HOSTNAME=n0104.savio1
SLURM_NTASKS_PER_NODE=1
SLURM_TOPOLOGY_ADDR=ib-savio.ib-savio-04.n0104.savio1
SLURMD_NODENAME=n0104.savio1
SLURM_PRIO_PROCESS=0
SLURM_NODE_ALIASES=(null)
TERM=xterm-256color
SHELL=/bin/bash
HISTSIZE=1000
SLURM_JOB_QOS=savio_normal
SSH_CLIENT=128.32.156.166 53087 22
SLURM_TOPOLOGY_ADDR_PATTERN=switch.switch.node
TMPDIR=/tmp
LIBRARY_PATH=/global/software/sl-6.x86_64/modules/langs/julia/0.5.0/lib/julia:/global/software/sl-6.x86_64/modules/langs/intel/2015.6.233/mkl/lib/intel64:/global/software/sl-6.x86_64/modules/langs/gcc/4.8.5/lib64:/global/software/sl-6.x86_64/modules/langs/gcc/4.8.5/lib
GCC_DIR=/global/software/sl-6.x86_64/modules/langs/gcc/4.8.5
FPATH=/global/software/sl-6.x86_64/modules/langs/intel/2015.6.233/mkl/include/fftw:/global/software/sl-6.x86_64/modules/langs/intel/2015.6.233/mkl/include
SSH_TTY=/dev/pts/23
USER=jdlara
SLURM_NNODES=1
LD_LIBRARY_PATH=/global/software/sl-6.x86_64/modules/langs/julia/0.5.0/lib/julia:/global/software/sl-6.x86_64/modules/langs/intel/2015.6.233/mkl/lib/intel64:/global/software/sl-6.x86_64/modules/langs/gcc/4.8.5/lib64:/global/software/sl-6.x86_64/modules/langs/gcc/4.8.5/lib:/global/home/users/jdlara/gurobi652/linux64/lib
LS_COLORS=rs=0:di=38;5;27:ln=38;5;51:mh=44;38;5;15:pi=40;38;5;11:so=38;5;13:do=38;5;5:bd=48;5;232;38;5;11:cd=48;5;232;38;5;3:or=48;5;232;38;5;9:mi=05;48;5;232;38;5;15:su=48;5;196;38;5;15:sg=48;5;11;38;5;16:ca=48;5;196;38;5;226:tw=48;5;10;38;5;16:ow=48;5;10;38;5;21:st=48;5;21;38;5;15:ex=38;5;34:*.tar=38;5;9:*.tgz=38;5;9:*.arj=38;5;9:*.taz=38;5;9:*.lzh=38;5;9:*.lzma=38;5;9:*.tlz=38;5;9:*.txz=38;5;9:*.zip=38;5;9:*.z=38;5;9:*.Z=38;5;9:*.dz=38;5;9:*.gz=38;5;9:*.lz=38;5;9:*.xz=38;5;9:*.bz2=38;5;9:*.tbz=38;5;9:*.tbz2=38;5;9:*.bz=38;5;9:*.tz=38;5;9:*.deb=38;5;9:*.rpm=38;5;9:*.jar=38;5;9:*.rar=38;5;9:*.ace=38;5;9:*.zoo=38;5;9:*.cpio=38;5;9:*.7z=38;5;9:*.rz=38;5;9:*.jpg=38;5;13:*.jpeg=38;5;13:*.gif=38;5;13:*.bmp=38;5;13:*.pbm=38;5;13:*.pgm=38;5;13:*.ppm=38;5;13:*.tga=38;5;13:*.xbm=38;5;13:*.xpm=38;5;13:*.tif=38;5;13:*.tiff=38;5;13:*.png=38;5;13:*.svg=38;5;13:*.svgz=38;5;13:*.mng=38;5;13:*.pcx=38;5;13:*.mov=38;5;13:*.mpg=38;5;13:*.mpeg=38;5;13:*.m2v=38;5;13:*.mkv=38;5;13:*.ogm=38;5;13:*.mp4=38;5;13:*.m4v=38;5;13:*.mp4v=38;5;13:*.vob=38;5;13:*.qt=38;5;13:*.nuv=38;5;13:*.wmv=38;5;13:*.asf=38;5;13:*.rm=38;5;13:*.rmvb=38;5;13:*.flc=38;5;13:*.avi=38;5;13:*.fli=38;5;13:*.flv=38;5;13:*.gl=38;5;13:*.dl=38;5;13:*.xcf=38;5;13:*.xwd=38;5;13:*.yuv=38;5;13:*.cgm=38;5;13:*.emf=38;5;13:*.axv=38;5;13:*.anx=38;5;13:*.ogv=38;5;13:*.ogx=38;5;13:*.aac=38;5;45:*.au=38;5;45:*.flac=38;5;45:*.mid=38;5;45:*.midi=38;5;45:*.mka=38;5;45:*.mp3=38;5;45:*.mpc=38;5;45:*.ogg=38;5;45:*.ra=38;5;45:*.wav=38;5;45:*.axa=38;5;45:*.oga=38;5;45:*.spx=38;5;45:*.xspf=38;5;45:
CPATH=/global/software/sl-6.x86_64/modules/langs/julia/0.5.0/include:/global/software/sl-6.x86_64/modules/langs/intel/2015.6.233/mkl/include/fftw:/global/software/sl-6.x86_64/modules/langs/intel/2015.6.233/mkl/include:/global/software/sl-6.x86_64/modules/langs/gcc/4.8.5/include
SLURM_JOBID=1277291
SLURM_NTASKS=1
NLSPATH=/global/software/sl-6.x86_64/modules/langs/intel/2015.6.233/mkl/lib/intel64/locale/en_US
MAIL=/var/spool/mail/jdlara
PATH=/global/software/sl-6.x86_64/modules/langs/julia/0.5.0/bin:/global/software/sl-6.x86_64/modules/langs/gcc/4.8.5/bin:/usr/local/bin:/bin:/usr/bin:/usr/local/sbin:/usr/sbin:/sbin:/global/home/groups/allhands/bin:/global/home/users/jdlara/gurobi652/linux64/bin:/global/home/users/jdlara/bin:/global/home/users/jdlara/gurobi652/linux64/bin
SLURM_TASKS_PER_NODE=20
SLURM_CPUS_PER_TASK=1
SLURM_JOB_ID=1277291
PWD=/global/home/users/jdlara/Julia_testcodes/aggregator_model/Multiple_fleet
SLURM_JOB_USER=jdlara
_LMFILES_=/global/software/sl-6.x86_64/modfiles/langs/gcc/4.8.5:/global/software/sl-6.x86_64/modfiles/gcc/4.8.5/mkl/2015.6.233:/global/software/sl-6.x86_64/modfiles/langs/julia/0.5.0
CUDA_VISIBLE_DEVICES=NoDevFiles
MODULEPATH=/global/software/sl-6.x86_64/modfiles/tools:/global/software/sl-6.x86_64/modfiles/langs:/global/software/sl-6.x86_64/modfiles/julia/0.5.0:/global/software/sl-6.x86_64/modfiles/gcc/4.8.5
LOADEDMODULES=gcc/4.8.5:mkl/2015.6.233:julia/0.5.0
SLURM_JOB_UID=42745
SLURM_NODEID=0
SLURM_SUBMIT_DIR=/global/home/users/jdlara/Julia_testcodes/aggregator_model/Multiple_fleet
SLURM_NPROCS=1
SLURM_TASK_PID=64538
LM_LICENSE_FILE=28518@lmgr0.hpcs.lbl.gov
SLURM_CPUS_ON_NODE=20
JULIA_DIR=/global/software/sl-6.x86_64/modules/langs/julia/0.5.0
ALLHANDS_BASHRC=1
HISTCONTROL=ignoredups
ENVIRONMENT=BATCH
SLURM_PROCID=0
MKL_DIR=/global/software/sl-6.x86_64/modules/langs/intel/2015.6.233/mkl
SLURM_JOB_NODELIST=n0104.savio1
SHLVL=3
HOME=/global/home/users/jdlara
SLURM_LOCALID=0
SLURM_CLUSTER_NAME=brc
SLURM_JOB_CPUS_PER_NODE=20
SLURM_SUBMIT_HOST=n0052.savio1
SLURM_GTIDS=0
SLURM_JOB_PARTITION=savio
LOGNAME=jdlara
CVS_RSH=ssh
SSH_CONNECTION=128.32.156.166 53087 10.0.0.22 22
SLURM_JOB_ACCOUNT=fc_emac
GPU_DEVICE_ORDINAL=NoDevFiles
MODULESHOME=/usr/Modules
SLURM_JOB_NUM_NODES=1
LESSOPEN=||/usr/bin/lesspipe.sh %s
INFOPATH=/global/software/sl-6.x86_64/modules/langs/gcc/4.8.5/share/info
INCLUDE=/global/software/sl-6.x86_64/modules/langs/julia/0.5.0/include:/global/software/sl-6.x86_64/modules/langs/intel/2015.6.233/mkl/include/fftw:/global/software/sl-6.x86_64/modules/langs/intel/2015.6.233/mkl/include:/global/software/sl-6.x86_64/modules/langs/gcc/4.8.5/include
G_BROKEN_FILENAMES=1
SLURM_MEM_PER_NODE=64000
BASH_FUNC_module()=() {  logger "$HOSTNAME $USER: module $*";
 eval `/usr/Modules/bin/modulecmd bash $*`
}
_=/bin/env
